# Four terms should be modified by Perl

#lmp_fitting # jumpname 
#ref.meam # potential 
#output.dat # output filename
#output.dat # output filename
 
echo none

include crystalindex.in #filename inside

label data # data loop
clear

#variable jumpname index lmp_fitting #*******1. FM for "jump" filename
variable jumpname index lmp_fitting1 # for "jump" filename

variable changeratio equal 0.01 #this value must be the same as used in dmol3 for B1 unit cell length 
variable compress equal 10
variable tension equal 10
variable allstep equal ${compress}+${tension}+1 # 1 for optimized structure
variable total loop ${allstep} ## total steps for deforming cell

units metal 
dimension 3 
boundary p p p 
box tilt large 
atom_style atomic 


# ---------- Create Atoms ---------------------
read_data ${filename}
change_box all xy final 0.0 xz final 0.0 yz final 0.0 remap units box
change_box all triclinic
# ---------- Define Interatomic Potential ---------------------                                 
pair_style meam/c
#pair_coeff * * ref.lib Pd Rh Co Ce Pt  ref.meam Pd Rh Co Ce Pt #*** 2. FM
pair_coeff * * ref.lib Nb Mo W Ta V   ref1.meam Nb Mo W Ta V
#---------------------------------------------

neighbor 0.3 bin 
neigh_modify every 1 check yes one 5000

# the read-in structure is the optimized one
thermo_style custom etotal pxx pyy pzz 
run 0
## use the most stable structure 
#print "pxx $(pxx)" append output.dat screen no #*** 3.FM
variable pxx equal $(pxx) 
variable abspxx equal abs(${pxx}) 
print "abspxx ${abspxx}" append output1.dat screen no
#print "pyy $(pyy)" append output.dat screen no
#print "pzz $(pzz)" append output.dat screen no

variable B1_tempx equal lx
variable B1_tempy equal ly
variable B1_tempz equal lz

variable B1_lengthx equal ${B1_tempx}
variable B1_lengthy equal ${B1_tempy}
variable B1_lengthz equal ${B1_tempz}

variable incrementx equal ${changeratio}*${B1_lengthx}
variable incrementy equal ${changeratio}*${B1_lengthy}
variable incrementz equal ${changeratio}*${B1_lengthz}
variable ref_lengthx equal ${B1_lengthx}-${compress}*${incrementx}
variable ref_lengthy equal ${B1_lengthy}-${compress}*${incrementy}
variable ref_lengthz equal ${B1_lengthz}-${compress}*${incrementz}
### making the intial cell for fitting loop

variable xlo equal xlo
variable ylo equal ylo
variable zlo equal zlo

variable xhi equal ${xlo}+${ref_lengthx}
variable yhi equal ${ylo}+${ref_lengthy}
variable zhi equal ${zlo}+${ref_lengthz}
change_box all x final ${xlo} ${xhi} y final ${ylo} ${yhi} &
z final ${zlo} ${zhi} remap units box

### end for making the smallest unit cell

variable atomnum equal count(all)

label fitting

variable xlo equal xlo
variable ylo equal ylo
variable zlo equal zlo
variable xy equal xy

variable xhi equal ${xlo}+${ref_lengthx}+(${total}-1)*${incrementx}
variable yhi equal ${ylo}+${ref_lengthy}+(${total}-1)*${incrementy}
variable zhi equal ${zlo}+${ref_lengthz}+(${total}-1)*${incrementz}
variable lattice equal ${ref_lengthx}+(${total}-1)*${incrementx}
thermo 1
thermo_style custom  etotal pxx

change_box all x final ${xlo} ${xhi} y final ${ylo} ${yhi} &
z final ${zlo} ${zhi} remap units box

run 0  
 
variable etotal equal etotal
variable be equal ${etotal}/${atomnum}
variable templattice equal ${lattice}
#print "${templattice} ${be}" append output.dat screen no #*** 4. FM
print "${templattice} ${be}" append output1.dat screen no

next total
jump ${jumpname}.in fitting #follow the label
next filename
jump ${jumpname}.in data #follow the label
	                               

